c description: Tseitin formula on Random 4-regular graph of 12 vertices, with odd charge
c generator: CNFgen (0.9.2)
c copyright: (C) 2012-2022 Massimo Lauria <massimo.lauria@uniroma1.it>
c url: https://massimolauria.net/cnfgen
c command line: cnfgen tseitin 12
c
p cnf 24 96
1 2 3 -4 0
1 2 -3 4 0
1 -2 3 4 0
1 -2 -3 -4 0
-1 2 3 4 0
-1 2 -3 -4 0
-1 -2 3 -4 0
-1 -2 -3 4 0
5 6 7 -8 0
5 6 -7 8 0
5 -6 7 8 0
5 -6 -7 -8 0
-5 6 7 8 0
-5 6 -7 -8 0
-5 -6 7 -8 0
-5 -6 -7 8 0
1 5 9 10 0
1 5 -9 -10 0
1 -5 9 -10 0
1 -5 -9 10 0
-1 5 9 -10 0
-1 5 -9 10 0
-1 -5 9 10 0
-1 -5 -9 -10 0
6 9 11 -12 0
6 9 -11 12 0
6 -9 11 12 0
6 -9 -11 -12 0
-6 9 11 12 0
-6 9 -11 -12 0
-6 -9 11 -12 0
-6 -9 -11 12 0
2 13 14 15 0
2 13 -14 -15 0
2 -13 14 -15 0
2 -13 -14 15 0
-2 13 14 -15 0
-2 13 -14 15 0
-2 -13 14 15 0
-2 -13 -14 -15 0
7 13 16 -17 0
7 13 -16 17 0
7 -13 16 17 0
7 -13 -16 -17 0
-7 13 16 17 0
-7 13 -16 -17 0
-7 -13 16 -17 0
-7 -13 -16 17 0
3 10 18 19 0
3 10 -18 -19 0
3 -10 18 -19 0
3 -10 -18 19 0
-3 10 18 -19 0
-3 10 -18 19 0
-3 -10 18 19 0
-3 -10 -18 -19 0
4 14 18 -20 0
4 14 -18 20 0
4 -14 18 20 0
4 -14 -18 -20 0
-4 14 18 20 0
-4 14 -18 -20 0
-4 -14 18 -20 0
-4 -14 -18 20 0
11 15 16 -21 0
11 15 -16 21 0
11 -15 16 21 0
11 -15 -16 -21 0
-11 15 16 21 0
-11 15 -16 -21 0
-11 -15 16 -21 0
-11 -15 -16 21 0
20 21 22 -23 0
20 21 -22 23 0
20 -21 22 23 0
20 -21 -22 -23 0
-20 21 22 23 0
-20 21 -22 -23 0
-20 -21 22 -23 0
-20 -21 -22 23 0
12 17 22 -24 0
12 17 -22 24 0
12 -17 22 24 0
12 -17 -22 -24 0
-12 17 22 24 0
-12 17 -22 -24 0
-12 -17 22 -24 0
-12 -17 -22 24 0
8 19 23 -24 0
8 19 -23 24 0
8 -19 23 24 0
8 -19 -23 -24 0
-8 19 23 24 0
-8 19 -23 -24 0
-8 -19 23 -24 0
-8 -19 -23 24 0
